<?xml version = "1.0" encoding="UTF-8" standalone="yes"?>
<CPLEXSolution version="1.2">
 <header
   problemName=""
   solutionName="p0"
   solutionIndex="-1"
   objectiveValue="33"
   solutionTypeValue="3"
   solutionTypeString="primal"
   solutionStatusValue="127"
   solutionStatusString="integer feasible solution"
   solutionMethodString="mip"
   primalFeasible="0"
   dualFeasible="0"
   writeLevel="1"/>
 <quality
   epInt="1.0000000000000001e-05"
   epRHS="9.9999999999999995e-07"
   maxIntInfeas="0"
   maxPrimalInfeas="3.5527136788005009e-15"
   maxX="33"
   maxSlack="60"/>
 <linearConstraints>
  <constraint index="0" slack="3.5527136788005009e-15"/>
  <constraint index="1" slack="-6.0000000000000036"/>
  <constraint index="2" slack="0"/>
  <constraint index="3" slack="-6.0000000000000036"/>
  <constraint index="4" slack="0"/>
  <constraint index="5" slack="-1.9999999999999964"/>
  <constraint index="6" slack="-12.999999999999996"/>
  <constraint index="7" slack="0"/>
  <constraint index="8" slack="-49"/>
  <constraint index="9" slack="-11"/>
  <constraint index="10" slack="-60"/>
  <constraint index="11" slack="0"/>
  <constraint index="12" slack="-39"/>
  <constraint index="13" slack="-16"/>
  <constraint index="14" slack="-5.9999999999999964"/>
  <constraint index="15" slack="-50"/>
  <constraint index="16" slack="-51"/>
  <constraint index="17" slack="0"/>
  <constraint index="18" slack="-40"/>
  <constraint index="19" slack="-11"/>
  <constraint index="20" slack="-55"/>
  <constraint index="21" slack="0"/>
  <constraint index="22" slack="-47"/>
  <constraint index="23" slack="-8"/>
  <constraint index="24" slack="-34"/>
  <constraint index="25" slack="-23"/>
  <constraint index="26" slack="-50"/>
  <constraint index="27" slack="0"/>
  <constraint index="28" slack="-37"/>
  <constraint index="29" slack="-15"/>
  <constraint index="30" slack="-45"/>
  <constraint index="31" slack="-7"/>
  <constraint index="32" slack="-43"/>
  <constraint index="33" slack="-11"/>
  <constraint index="34" slack="0"/>
  <constraint index="35" slack="-60"/>
  <constraint index="36" slack="-6"/>
  <constraint index="37" slack="-54"/>
  <constraint index="38" slack="-13"/>
  <constraint index="39" slack="-39"/>
  <constraint index="40" slack="-19"/>
  <constraint index="41" slack="-33"/>
  <constraint index="42" slack="-2"/>
  <constraint index="43" slack="-56"/>
  <constraint index="44" slack="-21"/>
  <constraint index="45" slack="0"/>
  <constraint index="46" slack="-13.000000000000004"/>
  <constraint index="47" slack="-3.5527136788005009e-15"/>
 </linearConstraints>
 <variables>
  <variable name="x_0_0" index="0" value="0"/>
  <variable name="x_0_1" index="1" value="11.999999999999996"/>
  <variable name="x_0_2" index="2" value="1"/>
  <variable name="x_0_3" index="3" value="16.999999999999996"/>
  <variable name="x_1_0" index="4" value="0.99999999999999645"/>
  <variable name="x_1_1" index="5" value="3.9999999999999964"/>
  <variable name="x_1_2" index="6" value="11.999999999999996"/>
  <variable name="x_1_3" index="7" value="26.999999999999996"/>
  <variable name="x_2_0" index="8" value="10"/>
  <variable name="x_2_1" index="9" value="23"/>
  <variable name="x_2_2" index="10" value="6"/>
  <variable name="x_2_3" index="11" value="0"/>
  <variable name="z_0_0_1" index="12" value="1"/>
  <variable name="z_0_0_2" index="13" value="1"/>
  <variable name="z_0_0_3" index="14" value="1"/>
  <variable name="z_0_1_2" index="15" value="-0"/>
  <variable name="z_0_1_3" index="16" value="1"/>
  <variable name="z_0_2_3" index="17" value="1"/>
  <variable name="z_1_0_1" index="18" value="1"/>
  <variable name="z_1_0_2" index="19" value="1"/>
  <variable name="z_1_0_3" index="20" value="1"/>
  <variable name="z_1_1_2" index="21" value="1"/>
  <variable name="z_1_1_3" index="22" value="1"/>
  <variable name="z_1_2_3" index="23" value="1"/>
  <variable name="z_2_0_1" index="24" value="1"/>
  <variable name="z_2_0_2" index="25" value="-0"/>
  <variable name="z_2_0_3" index="26" value="-0"/>
  <variable name="z_2_1_2" index="27" value="-0"/>
  <variable name="z_2_1_3" index="28" value="-0"/>
  <variable name="z_2_2_3" index="29" value="-0"/>
  <variable name="cmax" index="30" value="33"/>
 </variables>
</CPLEXSolution>
